(set-info :Origin "This instance was generated by: BanditFuzz-- an RL fuzzer for SMT solvers" )
(set-info :Author "Joe Scott, Fed Mora, Vijay Ganesh" )
(set-info :Contact "Joe Scott, joseph.scott@uwaterloo.ca")
(set-logic QF_BV)
(declare-const bool_0 Bool)
(declare-const bool_1 Bool)
(declare-const bool_2 Bool)
(declare-const bool_3 Bool)
(declare-const bool_4 Bool)
(declare-const bv_0 (_ BitVec 32))
(declare-const bv_1 (_ BitVec 32))
(declare-const bv_2 (_ BitVec 32))
(declare-const bv_3 (_ BitVec 32))
(declare-const bv_4 (_ BitVec 32))
(assert (bvuge (bvnor (bvnand #x2c19cd24  #x759bfeef ) (bvnand #xb89a7682  #x08ff8245 )) (bvsdiv (bvurem #x5c6613de  #x75384323 ) (bvsmod bv_1 #x145264e3 ))))
(assert (not (bvule (bvxnor #xc132e80e  #xc1131bf9 ) (bvashr #x69d8dd99  bv_3))))
(assert (xor (=> (bvule #x76e272a5  bv_4) (bvsgt #xb9eb06b5  #x7714a02a )) (bvsle (bvashr bv_4 bv_4) (bvxor #x1935b1dd  #x20c05449 ))))
(assert (bvsge (bvnor (bvor bv_3 bv_3) (bvlshr #xc1a00210  #xca247f8f )) (bvudiv (bvadd bv_3 bv_2) (bvurem bv_4 bv_0))))
(assert (bvsgt (bvnor (bvsub bv_4 #xd23bbfcb ) (bvmul bv_2 #x3475f09f )) (bvashr (bvashr bv_3 #x7f71817c ) (bvand bv_2 #x1df7e5b7 ))))
(check-sat)
(exit)
